\ENCODING=ISO-8859-1
\Problem name: model

Minimize
 obj1: 2.58736 y_0_1 + 19.0595 y_0_2 + 20.3991 y_0_3 + 20.0339 y_0_4
       + 21.9861 y_0_5 + 23.9832 y_0_6 + 27.5529 y_0_7 + 23.8811 y_0_8
       + 28.991 y_0_9 + 9.13704 y_0_10 + 9.88536 y_0_11 + 11.3307 y_0_12
       + 12.3341 y_0_13 + 6.99686 y_0_14 + 11.8864 y_0_15 + 2.58736 y_1_0
       + 16.2613 y_1_2 + 17.7615 y_1_3 + 20.0865 y_1_4 + 20.9391 y_1_5
       + 24.1206 y_1_6 + 22.4735 y_1_7 + 26.0755 y_1_8 + 24.7354 y_1_9
       + 7.91614 y_1_10 + 8.24362 y_1_11 + 8.73583 y_1_12 + 8.8335 y_1_13
       + 5.29127 y_1_14 + 9.62041 y_1_15 + 19.0595 y_2_0 + 16.2613 y_2_1
       + 1.3152 y_2_3 + 2.50116 y_2_4 + 3.45897 y_2_5 + 5.7579 y_2_6
       + 5.93 y_2_7 + 6.34277 y_2_8 + 6.10139 y_2_9 + 10.1504 y_2_10
       + 10.3258 y_2_11 + 8.81917 y_2_12 + 9.12805 y_2_13 + 13.4174 y_2_14
       + 10.752 y_2_15 + 20.3991 y_3_0 + 17.7615 y_3_1 + 1.3152 y_3_2
       + 1.34953 y_3_4 + 2.28754 y_3_5 + 5.70632 y_3_6 + 5.46316 y_3_7
       + 5.61229 y_3_8 + 5.82539 y_3_9 + 10.7682 y_3_10 + 10.5716 y_3_11
       + 10.3268 y_3_12 + 9.29686 y_3_13 + 13.9013 y_3_14 + 11.1693 y_3_15
       + 20.0339 y_4_0 + 20.0865 y_4_1 + 2.50116 y_4_2 + 1.34953 y_4_3
       + 1.21226 y_4_5 + 5.47627 y_4_6 + 5.80732 y_4_7 + 5.39385 y_4_8
       + 5.52127 y_4_9 + 11.2232 y_4_10 + 11.9469 y_4_11 + 10.2724 y_4_12
       + 11.4005 y_4_13 + 13.5281 y_4_14 + 12.507 y_4_15 + 21.9861 y_5_0
       + 20.9391 y_5_1 + 3.45897 y_5_2 + 2.28754 y_5_3 + 1.21226 y_5_4
       + 6.92303 y_5_6 + 6.40627 y_5_7 + 5.1432 y_5_8 + 5.56034 y_5_9
       + 13.2025 y_5_10 + 13.0212 y_5_11 + 12.4621 y_5_12 + 12.2396 y_5_13
       + 15.5967 y_5_14 + 12.3618 y_5_15 + 23.9832 y_6_0 + 24.1206 y_6_1
       + 5.7579 y_6_2 + 5.70632 y_6_3 + 5.47627 y_6_4 + 6.92303 y_6_5
       + 1.24786 y_6_7 + 2.49892 y_6_8 + 3.43758 y_6_9 + 14.3884 y_6_10
       + 13.2404 y_6_11 + 14.8471 y_6_12 + 12.9808 y_6_13 + 15.8103 y_6_14
       + 14.0596 y_6_15 + 27.5529 y_7_0 + 22.4735 y_7_1 + 5.93 y_7_2
       + 5.46316 y_7_3 + 5.80732 y_7_4 + 6.40627 y_7_5 + 1.24786 y_7_6
       + 1.29199 y_7_8 + 2.49481 y_7_9 + 16.9254 y_7_10 + 13.763 y_7_11
       + 15.7191 y_7_12 + 12.6716 y_7_13 + 18.8881 y_7_14 + 14.3869 y_7_15
       + 23.8811 y_8_0 + 26.0755 y_8_1 + 6.34277 y_8_2 + 5.61229 y_8_3
       + 5.39385 y_8_4 + 5.1432 y_8_5 + 2.49892 y_8_6 + 1.29199 y_8_7
       + 1.32695 y_8_9 + 16.6119 y_8_10 + 15.7113 y_8_11 + 13.6573 y_8_12
       + 13.469 y_8_13 + 20.2385 y_8_14 + 13.4627 y_8_15 + 28.991 y_9_0
       + 24.7354 y_9_1 + 6.10139 y_9_2 + 5.82539 y_9_3 + 5.52127 y_9_4
       + 5.56034 y_9_5 + 3.43758 y_9_6 + 2.49481 y_9_7 + 1.32695 y_9_8
       + 17.101 y_9_10 + 15.1878 y_9_11 + 14.3538 y_9_12 + 14.6726 y_9_13
       + 18.8708 y_9_14 + 15.4696 y_9_15 + 9.13704 y_10_0 + 7.91614 y_10_1
       + 10.1504 y_10_2 + 10.7682 y_10_3 + 11.2232 y_10_4 + 13.2025 y_10_5
       + 14.3884 y_10_6 + 16.9254 y_10_7 + 16.6119 y_10_8 + 17.101 y_10_9
       + 0.607678 y_10_11 + 1.32188 y_10_12 + 1.76838 y_10_13 + 2.42245 y_10_14
       + 4.13156 y_10_15 + 9.88536 y_11_0 + 8.24362 y_11_1 + 10.3258 y_11_2
       + 10.5716 y_11_3 + 11.9469 y_11_4 + 13.0212 y_11_5 + 13.2404 y_11_6
       + 13.763 y_11_7 + 15.7113 y_11_8 + 15.1878 y_11_9 + 0.607678 y_11_10
       + 0.684653 y_11_12 + 1.38918 y_11_13 + 2.76419 y_11_14 + 3.28917 y_11_15
       + 11.3307 y_12_0 + 8.73583 y_12_1 + 8.81917 y_12_2 + 10.3268 y_12_3
       + 10.2724 y_12_4 + 12.4621 y_12_5 + 14.8471 y_12_6 + 15.7191 y_12_7
       + 13.6573 y_12_8 + 14.3538 y_12_9 + 1.32188 y_12_10 + 0.684653 y_12_11
       + 0.707177 y_12_13 + 3.17294 y_12_14 + 2.76492 y_12_15 + 12.3341 y_13_0
       + 8.8335 y_13_1 + 9.12805 y_13_2 + 9.29686 y_13_3 + 11.4005 y_13_4
       + 12.2396 y_13_5 + 12.9808 y_13_6 + 12.6716 y_13_7 + 13.469 y_13_8
       + 14.6726 y_13_9 + 1.76838 y_13_10 + 1.38918 y_13_11 + 0.707177 y_13_12
       + 4.36527 y_13_14 + 2.28475 y_13_15 + 6.99686 y_14_0 + 5.29127 y_14_1
       + 13.4174 y_14_2 + 13.9013 y_14_3 + 13.5281 y_14_4 + 15.5967 y_14_5
       + 15.8103 y_14_6 + 18.8881 y_14_7 + 20.2385 y_14_8 + 18.8708 y_14_9
       + 2.42245 y_14_10 + 2.76419 y_14_11 + 3.17294 y_14_12 + 4.36527 y_14_13
       + 5.03226 y_14_15 + 11.8864 y_15_0 + 9.62041 y_15_1 + 10.752 y_15_2
       + 11.1693 y_15_3 + 12.507 y_15_4 + 12.3618 y_15_5 + 14.0596 y_15_6
       + 14.3869 y_15_7 + 13.4627 y_15_8 + 15.4696 y_15_9 + 4.13156 y_15_10
       + 3.28917 y_15_11 + 2.76492 y_15_12 + 2.28475 y_15_13 + 5.03226 y_15_14
Subject To
 c1:   x_0_1 - x_1_2 - x_1_3 - x_1_4 - x_1_5 - x_1_6 - x_1_7 - x_1_8 - x_1_9
       - x_1_10 - x_1_11 - x_1_12 - x_1_13 - x_1_14 - x_1_15 + x_2_1 + x_3_1
       + x_4_1 + x_5_1 + x_6_1 + x_7_1 + x_8_1 + x_9_1 + x_10_1 + x_11_1
       + x_12_1 + x_13_1 + x_14_1 + x_15_1  = 1
 c2:   x_0_2 + x_1_2 - x_2_1 - x_2_3 - x_2_4 - x_2_5 - x_2_6 - x_2_7 - x_2_8
       - x_2_9 - x_2_10 - x_2_11 - x_2_12 - x_2_13 - x_2_14 - x_2_15 + x_3_2
       + x_4_2 + x_5_2 + x_6_2 + x_7_2 + x_8_2 + x_9_2 + x_10_2 + x_11_2
       + x_12_2 + x_13_2 + x_14_2 + x_15_2  = 1
 c3:   x_0_3 + x_1_3 + x_2_3 - x_3_1 - x_3_2 - x_3_4 - x_3_5 - x_3_6 - x_3_7
       - x_3_8 - x_3_9 - x_3_10 - x_3_11 - x_3_12 - x_3_13 - x_3_14 - x_3_15
       + x_4_3 + x_5_3 + x_6_3 + x_7_3 + x_8_3 + x_9_3 + x_10_3 + x_11_3
       + x_12_3 + x_13_3 + x_14_3 + x_15_3  = 1
 c4:   x_0_4 + x_1_4 + x_2_4 + x_3_4 - x_4_1 - x_4_2 - x_4_3 - x_4_5 - x_4_6
       - x_4_7 - x_4_8 - x_4_9 - x_4_10 - x_4_11 - x_4_12 - x_4_13 - x_4_14
       - x_4_15 + x_5_4 + x_6_4 + x_7_4 + x_8_4 + x_9_4 + x_10_4 + x_11_4
       + x_12_4 + x_13_4 + x_14_4 + x_15_4  = 1
 c5:   x_0_5 + x_1_5 + x_2_5 + x_3_5 + x_4_5 - x_5_1 - x_5_2 - x_5_3 - x_5_4
       - x_5_6 - x_5_7 - x_5_8 - x_5_9 - x_5_10 - x_5_11 - x_5_12 - x_5_13
       - x_5_14 - x_5_15 + x_6_5 + x_7_5 + x_8_5 + x_9_5 + x_10_5 + x_11_5
       + x_12_5 + x_13_5 + x_14_5 + x_15_5  = 1
 c6:   x_0_6 + x_1_6 + x_2_6 + x_3_6 + x_4_6 + x_5_6 - x_6_1 - x_6_2 - x_6_3
       - x_6_4 - x_6_5 - x_6_7 - x_6_8 - x_6_9 - x_6_10 - x_6_11 - x_6_12
       - x_6_13 - x_6_14 - x_6_15 + x_7_6 + x_8_6 + x_9_6 + x_10_6 + x_11_6
       + x_12_6 + x_13_6 + x_14_6 + x_15_6  = 1
 c7:   x_0_7 + x_1_7 + x_2_7 + x_3_7 + x_4_7 + x_5_7 + x_6_7 - x_7_1 - x_7_2
       - x_7_3 - x_7_4 - x_7_5 - x_7_6 - x_7_8 - x_7_9 - x_7_10 - x_7_11
       - x_7_12 - x_7_13 - x_7_14 - x_7_15 + x_8_7 + x_9_7 + x_10_7 + x_11_7
       + x_12_7 + x_13_7 + x_14_7 + x_15_7  = 1
 c8:   x_0_8 + x_1_8 + x_2_8 + x_3_8 + x_4_8 + x_5_8 + x_6_8 + x_7_8 - x_8_1
       - x_8_2 - x_8_3 - x_8_4 - x_8_5 - x_8_6 - x_8_7 - x_8_9 - x_8_10
       - x_8_11 - x_8_12 - x_8_13 - x_8_14 - x_8_15 + x_9_8 + x_10_8 + x_11_8
       + x_12_8 + x_13_8 + x_14_8 + x_15_8  = 1
 c9:   x_0_9 + x_1_9 + x_2_9 + x_3_9 + x_4_9 + x_5_9 + x_6_9 + x_7_9 + x_8_9
       - x_9_1 - x_9_2 - x_9_3 - x_9_4 - x_9_5 - x_9_6 - x_9_7 - x_9_8 - x_9_10
       - x_9_11 - x_9_12 - x_9_13 - x_9_14 - x_9_15 + x_10_9 + x_11_9 + x_12_9
       + x_13_9 + x_14_9 + x_15_9  = 1
 c10:  x_0_10 + x_1_10 + x_2_10 + x_3_10 + x_4_10 + x_5_10 + x_6_10 + x_7_10
       + x_8_10 + x_9_10 - x_10_1 - x_10_2 - x_10_3 - x_10_4 - x_10_5 - x_10_6
       - x_10_7 - x_10_8 - x_10_9 - x_10_11 - x_10_12 - x_10_13 - x_10_14
       - x_10_15 + x_11_10 + x_12_10 + x_13_10 + x_14_10 + x_15_10  = 1
 c11:  x_0_11 + x_1_11 + x_2_11 + x_3_11 + x_4_11 + x_5_11 + x_6_11 + x_7_11
       + x_8_11 + x_9_11 + x_10_11 - x_11_1 - x_11_2 - x_11_3 - x_11_4 - x_11_5
       - x_11_6 - x_11_7 - x_11_8 - x_11_9 - x_11_10 - x_11_12 - x_11_13
       - x_11_14 - x_11_15 + x_12_11 + x_13_11 + x_14_11 + x_15_11  = 1
 c12:  x_0_12 + x_1_12 + x_2_12 + x_3_12 + x_4_12 + x_5_12 + x_6_12 + x_7_12
       + x_8_12 + x_9_12 + x_10_12 + x_11_12 - x_12_1 - x_12_2 - x_12_3
       - x_12_4 - x_12_5 - x_12_6 - x_12_7 - x_12_8 - x_12_9 - x_12_10
       - x_12_11 - x_12_13 - x_12_14 - x_12_15 + x_13_12 + x_14_12 + x_15_12
        = 1
 c13:  x_0_13 + x_1_13 + x_2_13 + x_3_13 + x_4_13 + x_5_13 + x_6_13 + x_7_13
       + x_8_13 + x_9_13 + x_10_13 + x_11_13 + x_12_13 - x_13_1 - x_13_2
       - x_13_3 - x_13_4 - x_13_5 - x_13_6 - x_13_7 - x_13_8 - x_13_9 - x_13_10
       - x_13_11 - x_13_12 - x_13_14 - x_13_15 + x_14_13 + x_15_13  = 1
 c14:  x_0_14 + x_1_14 + x_2_14 + x_3_14 + x_4_14 + x_5_14 + x_6_14 + x_7_14
       + x_8_14 + x_9_14 + x_10_14 + x_11_14 + x_12_14 + x_13_14 - x_14_1
       - x_14_2 - x_14_3 - x_14_4 - x_14_5 - x_14_6 - x_14_7 - x_14_8 - x_14_9
       - x_14_10 - x_14_11 - x_14_12 - x_14_13 - x_14_15 + x_15_14  = 1
 c15:  x_0_15 + x_1_15 + x_2_15 + x_3_15 + x_4_15 + x_5_15 + x_6_15 + x_7_15
       + x_8_15 + x_9_15 + x_10_15 + x_11_15 + x_12_15 + x_13_15 + x_14_15
       - x_15_1 - x_15_2 - x_15_3 - x_15_4 - x_15_5 - x_15_6 - x_15_7 - x_15_8
       - x_15_9 - x_15_10 - x_15_11 - x_15_12 - x_15_13 - x_15_14  = 1
 c16:  y_0_1 + y_0_2 + y_0_3 + y_0_4 + y_0_5 + y_0_6 + y_0_7 + y_0_8 + y_0_9
       + y_0_10 + y_0_11 + y_0_12 + y_0_13 + y_0_14 + y_0_15  = 1
 c17:  y_1_0 + y_1_2 + y_1_3 + y_1_4 + y_1_5 + y_1_6 + y_1_7 + y_1_8 + y_1_9
       + y_1_10 + y_1_11 + y_1_12 + y_1_13 + y_1_14 + y_1_15  = 1
 c18:  y_2_0 + y_2_1 + y_2_3 + y_2_4 + y_2_5 + y_2_6 + y_2_7 + y_2_8 + y_2_9
       + y_2_10 + y_2_11 + y_2_12 + y_2_13 + y_2_14 + y_2_15  = 1
 c19:  y_3_0 + y_3_1 + y_3_2 + y_3_4 + y_3_5 + y_3_6 + y_3_7 + y_3_8 + y_3_9
       + y_3_10 + y_3_11 + y_3_12 + y_3_13 + y_3_14 + y_3_15  = 1
 c20:  y_4_0 + y_4_1 + y_4_2 + y_4_3 + y_4_5 + y_4_6 + y_4_7 + y_4_8 + y_4_9
       + y_4_10 + y_4_11 + y_4_12 + y_4_13 + y_4_14 + y_4_15  = 1
 c21:  y_5_0 + y_5_1 + y_5_2 + y_5_3 + y_5_4 + y_5_6 + y_5_7 + y_5_8 + y_5_9
       + y_5_10 + y_5_11 + y_5_12 + y_5_13 + y_5_14 + y_5_15  = 1
 c22:  y_6_0 + y_6_1 + y_6_2 + y_6_3 + y_6_4 + y_6_5 + y_6_7 + y_6_8 + y_6_9
       + y_6_10 + y_6_11 + y_6_12 + y_6_13 + y_6_14 + y_6_15  = 1
 c23:  y_7_0 + y_7_1 + y_7_2 + y_7_3 + y_7_4 + y_7_5 + y_7_6 + y_7_8 + y_7_9
       + y_7_10 + y_7_11 + y_7_12 + y_7_13 + y_7_14 + y_7_15  = 1
 c24:  y_8_0 + y_8_1 + y_8_2 + y_8_3 + y_8_4 + y_8_5 + y_8_6 + y_8_7 + y_8_9
       + y_8_10 + y_8_11 + y_8_12 + y_8_13 + y_8_14 + y_8_15  = 1
 c25:  y_9_0 + y_9_1 + y_9_2 + y_9_3 + y_9_4 + y_9_5 + y_9_6 + y_9_7 + y_9_8
       + y_9_10 + y_9_11 + y_9_12 + y_9_13 + y_9_14 + y_9_15  = 1
 c26:  y_10_0 + y_10_1 + y_10_2 + y_10_3 + y_10_4 + y_10_5 + y_10_6 + y_10_7
       + y_10_8 + y_10_9 + y_10_11 + y_10_12 + y_10_13 + y_10_14 + y_10_15  = 1
 c27:  y_11_0 + y_11_1 + y_11_2 + y_11_3 + y_11_4 + y_11_5 + y_11_6 + y_11_7
       + y_11_8 + y_11_9 + y_11_10 + y_11_12 + y_11_13 + y_11_14 + y_11_15  = 1
 c28:  y_12_0 + y_12_1 + y_12_2 + y_12_3 + y_12_4 + y_12_5 + y_12_6 + y_12_7
       + y_12_8 + y_12_9 + y_12_10 + y_12_11 + y_12_13 + y_12_14 + y_12_15  = 1
 c29:  y_13_0 + y_13_1 + y_13_2 + y_13_3 + y_13_4 + y_13_5 + y_13_6 + y_13_7
       + y_13_8 + y_13_9 + y_13_10 + y_13_11 + y_13_12 + y_13_14 + y_13_15  = 1
 c30:  y_14_0 + y_14_1 + y_14_2 + y_14_3 + y_14_4 + y_14_5 + y_14_6 + y_14_7
       + y_14_8 + y_14_9 + y_14_10 + y_14_11 + y_14_12 + y_14_13 + y_14_15  = 1
 c31:  y_15_0 + y_15_1 + y_15_2 + y_15_3 + y_15_4 + y_15_5 + y_15_6 + y_15_7
       + y_15_8 + y_15_9 + y_15_10 + y_15_11 + y_15_12 + y_15_13 + y_15_14  = 1
 c32:  y_1_0 + y_2_0 + y_3_0 + y_4_0 + y_5_0 + y_6_0 + y_7_0 + y_8_0 + y_9_0
       + y_10_0 + y_11_0 + y_12_0 + y_13_0 + y_14_0 + y_15_0  = 1
 c33:  y_0_1 + y_2_1 + y_3_1 + y_4_1 + y_5_1 + y_6_1 + y_7_1 + y_8_1 + y_9_1
       + y_10_1 + y_11_1 + y_12_1 + y_13_1 + y_14_1 + y_15_1  = 1
 c34:  y_0_2 + y_1_2 + y_3_2 + y_4_2 + y_5_2 + y_6_2 + y_7_2 + y_8_2 + y_9_2
       + y_10_2 + y_11_2 + y_12_2 + y_13_2 + y_14_2 + y_15_2  = 1
 c35:  y_0_3 + y_1_3 + y_2_3 + y_4_3 + y_5_3 + y_6_3 + y_7_3 + y_8_3 + y_9_3
       + y_10_3 + y_11_3 + y_12_3 + y_13_3 + y_14_3 + y_15_3  = 1
 c36:  y_0_4 + y_1_4 + y_2_4 + y_3_4 + y_5_4 + y_6_4 + y_7_4 + y_8_4 + y_9_4
       + y_10_4 + y_11_4 + y_12_4 + y_13_4 + y_14_4 + y_15_4  = 1
 c37:  y_0_5 + y_1_5 + y_2_5 + y_3_5 + y_4_5 + y_6_5 + y_7_5 + y_8_5 + y_9_5
       + y_10_5 + y_11_5 + y_12_5 + y_13_5 + y_14_5 + y_15_5  = 1
 c38:  y_0_6 + y_1_6 + y_2_6 + y_3_6 + y_4_6 + y_5_6 + y_7_6 + y_8_6 + y_9_6
       + y_10_6 + y_11_6 + y_12_6 + y_13_6 + y_14_6 + y_15_6  = 1
 c39:  y_0_7 + y_1_7 + y_2_7 + y_3_7 + y_4_7 + y_5_7 + y_6_7 + y_8_7 + y_9_7
       + y_10_7 + y_11_7 + y_12_7 + y_13_7 + y_14_7 + y_15_7  = 1
 c40:  y_0_8 + y_1_8 + y_2_8 + y_3_8 + y_4_8 + y_5_8 + y_6_8 + y_7_8 + y_9_8
       + y_10_8 + y_11_8 + y_12_8 + y_13_8 + y_14_8 + y_15_8  = 1
 c41:  y_0_9 + y_1_9 + y_2_9 + y_3_9 + y_4_9 + y_5_9 + y_6_9 + y_7_9 + y_8_9
       + y_10_9 + y_11_9 + y_12_9 + y_13_9 + y_14_9 + y_15_9  = 1
 c42:  y_0_10 + y_1_10 + y_2_10 + y_3_10 + y_4_10 + y_5_10 + y_6_10 + y_7_10
       + y_8_10 + y_9_10 + y_11_10 + y_12_10 + y_13_10 + y_14_10 + y_15_10  = 1
 c43:  y_0_11 + y_1_11 + y_2_11 + y_3_11 + y_4_11 + y_5_11 + y_6_11 + y_7_11
       + y_8_11 + y_9_11 + y_10_11 + y_12_11 + y_13_11 + y_14_11 + y_15_11  = 1
 c44:  y_0_12 + y_1_12 + y_2_12 + y_3_12 + y_4_12 + y_5_12 + y_6_12 + y_7_12
       + y_8_12 + y_9_12 + y_10_12 + y_11_12 + y_13_12 + y_14_12 + y_15_12  = 1
 c45:  y_0_13 + y_1_13 + y_2_13 + y_3_13 + y_4_13 + y_5_13 + y_6_13 + y_7_13
       + y_8_13 + y_9_13 + y_10_13 + y_11_13 + y_12_13 + y_14_13 + y_15_13  = 1
 c46:  y_0_14 + y_1_14 + y_2_14 + y_3_14 + y_4_14 + y_5_14 + y_6_14 + y_7_14
       + y_8_14 + y_9_14 + y_10_14 + y_11_14 + y_12_14 + y_13_14 + y_15_14  = 1
 c47:  y_0_15 + y_1_15 + y_2_15 + y_3_15 + y_4_15 + y_5_15 + y_6_15 + y_7_15
       + y_8_15 + y_9_15 + y_10_15 + y_11_15 + y_12_15 + y_13_15 + y_14_15  = 1
 c48:  x_0_1 - 15 y_0_1 <= 0
 c49:  x_0_2 - 15 y_0_2 <= 0
 c50:  x_0_3 - 15 y_0_3 <= 0
 c51:  x_0_4 - 15 y_0_4 <= 0
 c52:  x_0_5 - 15 y_0_5 <= 0
 c53:  x_0_6 - 15 y_0_6 <= 0
 c54:  x_0_7 - 15 y_0_7 <= 0
 c55:  x_0_8 - 15 y_0_8 <= 0
 c56:  x_0_9 - 15 y_0_9 <= 0
 c57:  x_0_10 - 15 y_0_10 <= 0
 c58:  x_0_11 - 15 y_0_11 <= 0
 c59:  x_0_12 - 15 y_0_12 <= 0
 c60:  x_0_13 - 15 y_0_13 <= 0
 c61:  x_0_14 - 15 y_0_14 <= 0
 c62:  x_0_15 - 15 y_0_15 <= 0
 c63:  x_1_2 - 15 y_1_2 <= 0
 c64:  x_1_3 - 15 y_1_3 <= 0
 c65:  x_1_4 - 15 y_1_4 <= 0
 c66:  x_1_5 - 15 y_1_5 <= 0
 c67:  x_1_6 - 15 y_1_6 <= 0
 c68:  x_1_7 - 15 y_1_7 <= 0
 c69:  x_1_8 - 15 y_1_8 <= 0
 c70:  x_1_9 - 15 y_1_9 <= 0
 c71:  x_1_10 - 15 y_1_10 <= 0
 c72:  x_1_11 - 15 y_1_11 <= 0
 c73:  x_1_12 - 15 y_1_12 <= 0
 c74:  x_1_13 - 15 y_1_13 <= 0
 c75:  x_1_14 - 15 y_1_14 <= 0
 c76:  x_1_15 - 15 y_1_15 <= 0
 c77:  x_2_1 - 15 y_2_1 <= 0
 c78:  x_2_3 - 15 y_2_3 <= 0
 c79:  x_2_4 - 15 y_2_4 <= 0
 c80:  x_2_5 - 15 y_2_5 <= 0
 c81:  x_2_6 - 15 y_2_6 <= 0
 c82:  x_2_7 - 15 y_2_7 <= 0
 c83:  x_2_8 - 15 y_2_8 <= 0
 c84:  x_2_9 - 15 y_2_9 <= 0
 c85:  x_2_10 - 15 y_2_10 <= 0
 c86:  x_2_11 - 15 y_2_11 <= 0
 c87:  x_2_12 - 15 y_2_12 <= 0
 c88:  x_2_13 - 15 y_2_13 <= 0
 c89:  x_2_14 - 15 y_2_14 <= 0
 c90:  x_2_15 - 15 y_2_15 <= 0
 c91:  x_3_1 - 15 y_3_1 <= 0
 c92:  x_3_2 - 15 y_3_2 <= 0
 c93:  x_3_4 - 15 y_3_4 <= 0
 c94:  x_3_5 - 15 y_3_5 <= 0
 c95:  x_3_6 - 15 y_3_6 <= 0
 c96:  x_3_7 - 15 y_3_7 <= 0
 c97:  x_3_8 - 15 y_3_8 <= 0
 c98:  x_3_9 - 15 y_3_9 <= 0
 c99:  x_3_10 - 15 y_3_10 <= 0
 c100: x_3_11 - 15 y_3_11 <= 0
 c101: x_3_12 - 15 y_3_12 <= 0
 c102: x_3_13 - 15 y_3_13 <= 0
 c103: x_3_14 - 15 y_3_14 <= 0
 c104: x_3_15 - 15 y_3_15 <= 0
 c105: x_4_1 - 15 y_4_1 <= 0
 c106: x_4_2 - 15 y_4_2 <= 0
 c107: x_4_3 - 15 y_4_3 <= 0
 c108: x_4_5 - 15 y_4_5 <= 0
 c109: x_4_6 - 15 y_4_6 <= 0
 c110: x_4_7 - 15 y_4_7 <= 0
 c111: x_4_8 - 15 y_4_8 <= 0
 c112: x_4_9 - 15 y_4_9 <= 0
 c113: x_4_10 - 15 y_4_10 <= 0
 c114: x_4_11 - 15 y_4_11 <= 0
 c115: x_4_12 - 15 y_4_12 <= 0
 c116: x_4_13 - 15 y_4_13 <= 0
 c117: x_4_14 - 15 y_4_14 <= 0
 c118: x_4_15 - 15 y_4_15 <= 0
 c119: x_5_1 - 15 y_5_1 <= 0
 c120: x_5_2 - 15 y_5_2 <= 0
 c121: x_5_3 - 15 y_5_3 <= 0
 c122: x_5_4 - 15 y_5_4 <= 0
 c123: x_5_6 - 15 y_5_6 <= 0
 c124: x_5_7 - 15 y_5_7 <= 0
 c125: x_5_8 - 15 y_5_8 <= 0
 c126: x_5_9 - 15 y_5_9 <= 0
 c127: x_5_10 - 15 y_5_10 <= 0
 c128: x_5_11 - 15 y_5_11 <= 0
 c129: x_5_12 - 15 y_5_12 <= 0
 c130: x_5_13 - 15 y_5_13 <= 0
 c131: x_5_14 - 15 y_5_14 <= 0
 c132: x_5_15 - 15 y_5_15 <= 0
 c133: x_6_1 - 15 y_6_1 <= 0
 c134: x_6_2 - 15 y_6_2 <= 0
 c135: x_6_3 - 15 y_6_3 <= 0
 c136: x_6_4 - 15 y_6_4 <= 0
 c137: x_6_5 - 15 y_6_5 <= 0
 c138: x_6_7 - 15 y_6_7 <= 0
 c139: x_6_8 - 15 y_6_8 <= 0
 c140: x_6_9 - 15 y_6_9 <= 0
 c141: x_6_10 - 15 y_6_10 <= 0
 c142: x_6_11 - 15 y_6_11 <= 0
 c143: x_6_12 - 15 y_6_12 <= 0
 c144: x_6_13 - 15 y_6_13 <= 0
 c145: x_6_14 - 15 y_6_14 <= 0
 c146: x_6_15 - 15 y_6_15 <= 0
 c147: x_7_1 - 15 y_7_1 <= 0
 c148: x_7_2 - 15 y_7_2 <= 0
 c149: x_7_3 - 15 y_7_3 <= 0
 c150: x_7_4 - 15 y_7_4 <= 0
 c151: x_7_5 - 15 y_7_5 <= 0
 c152: x_7_6 - 15 y_7_6 <= 0
 c153: x_7_8 - 15 y_7_8 <= 0
 c154: x_7_9 - 15 y_7_9 <= 0
 c155: x_7_10 - 15 y_7_10 <= 0
 c156: x_7_11 - 15 y_7_11 <= 0
 c157: x_7_12 - 15 y_7_12 <= 0
 c158: x_7_13 - 15 y_7_13 <= 0
 c159: x_7_14 - 15 y_7_14 <= 0
 c160: x_7_15 - 15 y_7_15 <= 0
 c161: x_8_1 - 15 y_8_1 <= 0
 c162: x_8_2 - 15 y_8_2 <= 0
 c163: x_8_3 - 15 y_8_3 <= 0
 c164: x_8_4 - 15 y_8_4 <= 0
 c165: x_8_5 - 15 y_8_5 <= 0
 c166: x_8_6 - 15 y_8_6 <= 0
 c167: x_8_7 - 15 y_8_7 <= 0
 c168: x_8_9 - 15 y_8_9 <= 0
 c169: x_8_10 - 15 y_8_10 <= 0
 c170: x_8_11 - 15 y_8_11 <= 0
 c171: x_8_12 - 15 y_8_12 <= 0
 c172: x_8_13 - 15 y_8_13 <= 0
 c173: x_8_14 - 15 y_8_14 <= 0
 c174: x_8_15 - 15 y_8_15 <= 0
 c175: x_9_1 - 15 y_9_1 <= 0
 c176: x_9_2 - 15 y_9_2 <= 0
 c177: x_9_3 - 15 y_9_3 <= 0
 c178: x_9_4 - 15 y_9_4 <= 0
 c179: x_9_5 - 15 y_9_5 <= 0
 c180: x_9_6 - 15 y_9_6 <= 0
 c181: x_9_7 - 15 y_9_7 <= 0
 c182: x_9_8 - 15 y_9_8 <= 0
 c183: x_9_10 - 15 y_9_10 <= 0
 c184: x_9_11 - 15 y_9_11 <= 0
 c185: x_9_12 - 15 y_9_12 <= 0
 c186: x_9_13 - 15 y_9_13 <= 0
 c187: x_9_14 - 15 y_9_14 <= 0
 c188: x_9_15 - 15 y_9_15 <= 0
 c189: x_10_1 - 15 y_10_1 <= 0
 c190: x_10_2 - 15 y_10_2 <= 0
 c191: x_10_3 - 15 y_10_3 <= 0
 c192: x_10_4 - 15 y_10_4 <= 0
 c193: x_10_5 - 15 y_10_5 <= 0
 c194: x_10_6 - 15 y_10_6 <= 0
 c195: x_10_7 - 15 y_10_7 <= 0
 c196: x_10_8 - 15 y_10_8 <= 0
 c197: x_10_9 - 15 y_10_9 <= 0
 c198: x_10_11 - 15 y_10_11 <= 0
 c199: x_10_12 - 15 y_10_12 <= 0
 c200: x_10_13 - 15 y_10_13 <= 0
 c201: x_10_14 - 15 y_10_14 <= 0
 c202: x_10_15 - 15 y_10_15 <= 0
 c203: x_11_1 - 15 y_11_1 <= 0
 c204: x_11_2 - 15 y_11_2 <= 0
 c205: x_11_3 - 15 y_11_3 <= 0
 c206: x_11_4 - 15 y_11_4 <= 0
 c207: x_11_5 - 15 y_11_5 <= 0
 c208: x_11_6 - 15 y_11_6 <= 0
 c209: x_11_7 - 15 y_11_7 <= 0
 c210: x_11_8 - 15 y_11_8 <= 0
 c211: x_11_9 - 15 y_11_9 <= 0
 c212: x_11_10 - 15 y_11_10 <= 0
 c213: x_11_12 - 15 y_11_12 <= 0
 c214: x_11_13 - 15 y_11_13 <= 0
 c215: x_11_14 - 15 y_11_14 <= 0
 c216: x_11_15 - 15 y_11_15 <= 0
 c217: x_12_1 - 15 y_12_1 <= 0
 c218: x_12_2 - 15 y_12_2 <= 0
 c219: x_12_3 - 15 y_12_3 <= 0
 c220: x_12_4 - 15 y_12_4 <= 0
 c221: x_12_5 - 15 y_12_5 <= 0
 c222: x_12_6 - 15 y_12_6 <= 0
 c223: x_12_7 - 15 y_12_7 <= 0
 c224: x_12_8 - 15 y_12_8 <= 0
 c225: x_12_9 - 15 y_12_9 <= 0
 c226: x_12_10 - 15 y_12_10 <= 0
 c227: x_12_11 - 15 y_12_11 <= 0
 c228: x_12_13 - 15 y_12_13 <= 0
 c229: x_12_14 - 15 y_12_14 <= 0
 c230: x_12_15 - 15 y_12_15 <= 0
 c231: x_13_1 - 15 y_13_1 <= 0
 c232: x_13_2 - 15 y_13_2 <= 0
 c233: x_13_3 - 15 y_13_3 <= 0
 c234: x_13_4 - 15 y_13_4 <= 0
 c235: x_13_5 - 15 y_13_5 <= 0
 c236: x_13_6 - 15 y_13_6 <= 0
 c237: x_13_7 - 15 y_13_7 <= 0
 c238: x_13_8 - 15 y_13_8 <= 0
 c239: x_13_9 - 15 y_13_9 <= 0
 c240: x_13_10 - 15 y_13_10 <= 0
 c241: x_13_11 - 15 y_13_11 <= 0
 c242: x_13_12 - 15 y_13_12 <= 0
 c243: x_13_14 - 15 y_13_14 <= 0
 c244: x_13_15 - 15 y_13_15 <= 0
 c245: x_14_1 - 15 y_14_1 <= 0
 c246: x_14_2 - 15 y_14_2 <= 0
 c247: x_14_3 - 15 y_14_3 <= 0
 c248: x_14_4 - 15 y_14_4 <= 0
 c249: x_14_5 - 15 y_14_5 <= 0
 c250: x_14_6 - 15 y_14_6 <= 0
 c251: x_14_7 - 15 y_14_7 <= 0
 c252: x_14_8 - 15 y_14_8 <= 0
 c253: x_14_9 - 15 y_14_9 <= 0
 c254: x_14_10 - 15 y_14_10 <= 0
 c255: x_14_11 - 15 y_14_11 <= 0
 c256: x_14_12 - 15 y_14_12 <= 0
 c257: x_14_13 - 15 y_14_13 <= 0
 c258: x_14_15 - 15 y_14_15 <= 0
 c259: x_15_1 - 15 y_15_1 <= 0
 c260: x_15_2 - 15 y_15_2 <= 0
 c261: x_15_3 - 15 y_15_3 <= 0
 c262: x_15_4 - 15 y_15_4 <= 0
 c263: x_15_5 - 15 y_15_5 <= 0
 c264: x_15_6 - 15 y_15_6 <= 0
 c265: x_15_7 - 15 y_15_7 <= 0
 c266: x_15_8 - 15 y_15_8 <= 0
 c267: x_15_9 - 15 y_15_9 <= 0
 c268: x_15_10 - 15 y_15_10 <= 0
 c269: x_15_11 - 15 y_15_11 <= 0
 c270: x_15_12 - 15 y_15_12 <= 0
 c271: x_15_13 - 15 y_15_13 <= 0
 c272: x_15_14 - 15 y_15_14 <= 0
Bounds
 0 <= y_0_1 <= 1
 0 <= y_0_2 <= 1
 0 <= y_0_3 <= 1
 0 <= y_0_4 <= 1
 0 <= y_0_5 <= 1
 0 <= y_0_6 <= 1
 0 <= y_0_7 <= 1
 0 <= y_0_8 <= 1
 0 <= y_0_9 <= 1
 0 <= y_0_10 <= 1
 0 <= y_0_11 <= 1
 0 <= y_0_12 <= 1
 0 <= y_0_13 <= 1
 0 <= y_0_14 <= 1
 0 <= y_0_15 <= 1
 0 <= y_1_0 <= 1
 0 <= y_1_2 <= 1
 0 <= y_1_3 <= 1
 0 <= y_1_4 <= 1
 0 <= y_1_5 <= 1
 0 <= y_1_6 <= 1
 0 <= y_1_7 <= 1
 0 <= y_1_8 <= 1
 0 <= y_1_9 <= 1
 0 <= y_1_10 <= 1
 0 <= y_1_11 <= 1
 0 <= y_1_12 <= 1
 0 <= y_1_13 <= 1
 0 <= y_1_14 <= 1
 0 <= y_1_15 <= 1
 0 <= y_2_0 <= 1
 0 <= y_2_1 <= 1
 0 <= y_2_3 <= 1
 0 <= y_2_4 <= 1
 0 <= y_2_5 <= 1
 0 <= y_2_6 <= 1
 0 <= y_2_7 <= 1
 0 <= y_2_8 <= 1
 0 <= y_2_9 <= 1
 0 <= y_2_10 <= 1
 0 <= y_2_11 <= 1
 0 <= y_2_12 <= 1
 0 <= y_2_13 <= 1
 0 <= y_2_14 <= 1
 0 <= y_2_15 <= 1
 0 <= y_3_0 <= 1
 0 <= y_3_1 <= 1
 0 <= y_3_2 <= 1
 0 <= y_3_4 <= 1
 0 <= y_3_5 <= 1
 0 <= y_3_6 <= 1
 0 <= y_3_7 <= 1
 0 <= y_3_8 <= 1
 0 <= y_3_9 <= 1
 0 <= y_3_10 <= 1
 0 <= y_3_11 <= 1
 0 <= y_3_12 <= 1
 0 <= y_3_13 <= 1
 0 <= y_3_14 <= 1
 0 <= y_3_15 <= 1
 0 <= y_4_0 <= 1
 0 <= y_4_1 <= 1
 0 <= y_4_2 <= 1
 0 <= y_4_3 <= 1
 0 <= y_4_5 <= 1
 0 <= y_4_6 <= 1
 0 <= y_4_7 <= 1
 0 <= y_4_8 <= 1
 0 <= y_4_9 <= 1
 0 <= y_4_10 <= 1
 0 <= y_4_11 <= 1
 0 <= y_4_12 <= 1
 0 <= y_4_13 <= 1
 0 <= y_4_14 <= 1
 0 <= y_4_15 <= 1
 0 <= y_5_0 <= 1
 0 <= y_5_1 <= 1
 0 <= y_5_2 <= 1
 0 <= y_5_3 <= 1
 0 <= y_5_4 <= 1
 0 <= y_5_6 <= 1
 0 <= y_5_7 <= 1
 0 <= y_5_8 <= 1
 0 <= y_5_9 <= 1
 0 <= y_5_10 <= 1
 0 <= y_5_11 <= 1
 0 <= y_5_12 <= 1
 0 <= y_5_13 <= 1
 0 <= y_5_14 <= 1
 0 <= y_5_15 <= 1
 0 <= y_6_0 <= 1
 0 <= y_6_1 <= 1
 0 <= y_6_2 <= 1
 0 <= y_6_3 <= 1
 0 <= y_6_4 <= 1
 0 <= y_6_5 <= 1
 0 <= y_6_7 <= 1
 0 <= y_6_8 <= 1
 0 <= y_6_9 <= 1
 0 <= y_6_10 <= 1
 0 <= y_6_11 <= 1
 0 <= y_6_12 <= 1
 0 <= y_6_13 <= 1
 0 <= y_6_14 <= 1
 0 <= y_6_15 <= 1
 0 <= y_7_0 <= 1
 0 <= y_7_1 <= 1
 0 <= y_7_2 <= 1
 0 <= y_7_3 <= 1
 0 <= y_7_4 <= 1
 0 <= y_7_5 <= 1
 0 <= y_7_6 <= 1
 0 <= y_7_8 <= 1
 0 <= y_7_9 <= 1
 0 <= y_7_10 <= 1
 0 <= y_7_11 <= 1
 0 <= y_7_12 <= 1
 0 <= y_7_13 <= 1
 0 <= y_7_14 <= 1
 0 <= y_7_15 <= 1
 0 <= y_8_0 <= 1
 0 <= y_8_1 <= 1
 0 <= y_8_2 <= 1
 0 <= y_8_3 <= 1
 0 <= y_8_4 <= 1
 0 <= y_8_5 <= 1
 0 <= y_8_6 <= 1
 0 <= y_8_7 <= 1
 0 <= y_8_9 <= 1
 0 <= y_8_10 <= 1
 0 <= y_8_11 <= 1
 0 <= y_8_12 <= 1
 0 <= y_8_13 <= 1
 0 <= y_8_14 <= 1
 0 <= y_8_15 <= 1
 0 <= y_9_0 <= 1
 0 <= y_9_1 <= 1
 0 <= y_9_2 <= 1
 0 <= y_9_3 <= 1
 0 <= y_9_4 <= 1
 0 <= y_9_5 <= 1
 0 <= y_9_6 <= 1
 0 <= y_9_7 <= 1
 0 <= y_9_8 <= 1
 0 <= y_9_10 <= 1
 0 <= y_9_11 <= 1
 0 <= y_9_12 <= 1
 0 <= y_9_13 <= 1
 0 <= y_9_14 <= 1
 0 <= y_9_15 <= 1
 0 <= y_10_0 <= 1
 0 <= y_10_1 <= 1
 0 <= y_10_2 <= 1
 0 <= y_10_3 <= 1
 0 <= y_10_4 <= 1
 0 <= y_10_5 <= 1
 0 <= y_10_6 <= 1
 0 <= y_10_7 <= 1
 0 <= y_10_8 <= 1
 0 <= y_10_9 <= 1
 0 <= y_10_11 <= 1
 0 <= y_10_12 <= 1
 0 <= y_10_13 <= 1
 0 <= y_10_14 <= 1
 0 <= y_10_15 <= 1
 0 <= y_11_0 <= 1
 0 <= y_11_1 <= 1
 0 <= y_11_2 <= 1
 0 <= y_11_3 <= 1
 0 <= y_11_4 <= 1
 0 <= y_11_5 <= 1
 0 <= y_11_6 <= 1
 0 <= y_11_7 <= 1
 0 <= y_11_8 <= 1
 0 <= y_11_9 <= 1
 0 <= y_11_10 <= 1
 0 <= y_11_12 <= 1
 0 <= y_11_13 <= 1
 0 <= y_11_14 <= 1
 0 <= y_11_15 <= 1
 0 <= y_12_0 <= 1
 0 <= y_12_1 <= 1
 0 <= y_12_2 <= 1
 0 <= y_12_3 <= 1
 0 <= y_12_4 <= 1
 0 <= y_12_5 <= 1
 0 <= y_12_6 <= 1
 0 <= y_12_7 <= 1
 0 <= y_12_8 <= 1
 0 <= y_12_9 <= 1
 0 <= y_12_10 <= 1
 0 <= y_12_11 <= 1
 0 <= y_12_13 <= 1
 0 <= y_12_14 <= 1
 0 <= y_12_15 <= 1
 0 <= y_13_0 <= 1
 0 <= y_13_1 <= 1
 0 <= y_13_2 <= 1
 0 <= y_13_3 <= 1
 0 <= y_13_4 <= 1
 0 <= y_13_5 <= 1
 0 <= y_13_6 <= 1
 0 <= y_13_7 <= 1
 0 <= y_13_8 <= 1
 0 <= y_13_9 <= 1
 0 <= y_13_10 <= 1
 0 <= y_13_11 <= 1
 0 <= y_13_12 <= 1
 0 <= y_13_14 <= 1
 0 <= y_13_15 <= 1
 0 <= y_14_0 <= 1
 0 <= y_14_1 <= 1
 0 <= y_14_2 <= 1
 0 <= y_14_3 <= 1
 0 <= y_14_4 <= 1
 0 <= y_14_5 <= 1
 0 <= y_14_6 <= 1
 0 <= y_14_7 <= 1
 0 <= y_14_8 <= 1
 0 <= y_14_9 <= 1
 0 <= y_14_10 <= 1
 0 <= y_14_11 <= 1
 0 <= y_14_12 <= 1
 0 <= y_14_13 <= 1
 0 <= y_14_15 <= 1
 0 <= y_15_0 <= 1
 0 <= y_15_1 <= 1
 0 <= y_15_2 <= 1
 0 <= y_15_3 <= 1
 0 <= y_15_4 <= 1
 0 <= y_15_5 <= 1
 0 <= y_15_6 <= 1
 0 <= y_15_7 <= 1
 0 <= y_15_8 <= 1
 0 <= y_15_9 <= 1
 0 <= y_15_10 <= 1
 0 <= y_15_11 <= 1
 0 <= y_15_12 <= 1
 0 <= y_15_13 <= 1
 0 <= y_15_14 <= 1
Binaries
 y_0_1  y_0_2  y_0_3  y_0_4  y_0_5  y_0_6  y_0_7  y_0_8  y_0_9  y_0_10  y_0_11 
 y_0_12  y_0_13  y_0_14  y_0_15  y_1_0  y_1_2  y_1_3  y_1_4  y_1_5  y_1_6 
 y_1_7  y_1_8  y_1_9  y_1_10  y_1_11  y_1_12  y_1_13  y_1_14  y_1_15  y_2_0 
 y_2_1  y_2_3  y_2_4  y_2_5  y_2_6  y_2_7  y_2_8  y_2_9  y_2_10  y_2_11 
 y_2_12  y_2_13  y_2_14  y_2_15  y_3_0  y_3_1  y_3_2  y_3_4  y_3_5  y_3_6 
 y_3_7  y_3_8  y_3_9  y_3_10  y_3_11  y_3_12  y_3_13  y_3_14  y_3_15  y_4_0 
 y_4_1  y_4_2  y_4_3  y_4_5  y_4_6  y_4_7  y_4_8  y_4_9  y_4_10  y_4_11 
 y_4_12  y_4_13  y_4_14  y_4_15  y_5_0  y_5_1  y_5_2  y_5_3  y_5_4  y_5_6 
 y_5_7  y_5_8  y_5_9  y_5_10  y_5_11  y_5_12  y_5_13  y_5_14  y_5_15  y_6_0 
 y_6_1  y_6_2  y_6_3  y_6_4  y_6_5  y_6_7  y_6_8  y_6_9  y_6_10  y_6_11 
 y_6_12  y_6_13  y_6_14  y_6_15  y_7_0  y_7_1  y_7_2  y_7_3  y_7_4  y_7_5 
 y_7_6  y_7_8  y_7_9  y_7_10  y_7_11  y_7_12  y_7_13  y_7_14  y_7_15  y_8_0 
 y_8_1  y_8_2  y_8_3  y_8_4  y_8_5  y_8_6  y_8_7  y_8_9  y_8_10  y_8_11 
 y_8_12  y_8_13  y_8_14  y_8_15  y_9_0  y_9_1  y_9_2  y_9_3  y_9_4  y_9_5 
 y_9_6  y_9_7  y_9_8  y_9_10  y_9_11  y_9_12  y_9_13  y_9_14  y_9_15  y_10_0 
 y_10_1  y_10_2  y_10_3  y_10_4  y_10_5  y_10_6  y_10_7  y_10_8  y_10_9 
 y_10_11  y_10_12  y_10_13  y_10_14  y_10_15  y_11_0  y_11_1  y_11_2  y_11_3 
 y_11_4  y_11_5  y_11_6  y_11_7  y_11_8  y_11_9  y_11_10  y_11_12  y_11_13 
 y_11_14  y_11_15  y_12_0  y_12_1  y_12_2  y_12_3  y_12_4  y_12_5  y_12_6 
 y_12_7  y_12_8  y_12_9  y_12_10  y_12_11  y_12_13  y_12_14  y_12_15  y_13_0 
 y_13_1  y_13_2  y_13_3  y_13_4  y_13_5  y_13_6  y_13_7  y_13_8  y_13_9 
 y_13_10  y_13_11  y_13_12  y_13_14  y_13_15  y_14_0  y_14_1  y_14_2  y_14_3 
 y_14_4  y_14_5  y_14_6  y_14_7  y_14_8  y_14_9  y_14_10  y_14_11  y_14_12 
 y_14_13  y_14_15  y_15_0  y_15_1  y_15_2  y_15_3  y_15_4  y_15_5  y_15_6 
 y_15_7  y_15_8  y_15_9  y_15_10  y_15_11  y_15_12  y_15_13  y_15_14 
End
